p cnf 132 222
1 0
2 0
3 0
4 0
5 0
12 0
-13 -91 -79 0
-13 -92 -79 0
-13 -93 -79 0
-13 -94 -79 0
-13 -95 -79 0
-13 -96 -79 0
-20 -97 -80 0
-20 -98 -80 0
-20 -99 -80 0
-20 -100 -80 0
-20 -101 -80 0
-20 -102 -80 0
-27 -103 -81 0
-27 -104 -81 0
-27 -105 -81 0
-27 -106 -81 0
-27 -107 -81 0
-27 -108 -81 0
-34 -109 -82 0
-34 -110 -82 0
-34 -111 -82 0
-34 -112 -82 0
-34 -113 -82 0
-34 -114 -82 0
-41 -115 -83 0
-41 -116 -83 0
-41 -117 -83 0
-41 -118 -83 0
-41 -119 -83 0
-41 -120 -83 0
-48 -121 -84 0
-48 -122 -84 0
-48 -123 -84 0
-48 -124 -84 0
-48 -125 -84 0
-48 -126 -84 0
-55 -127 -85 0
-57 -128 -86 0
-59 -129 -87 0
-61 -130 -88 0
-63 -131 -89 0
-65 -132 -90 0
-1 67 0
1 -67 0
-2 68 0
2 -68 0
-3 69 0
3 -69 0
-4 70 0
4 -70 0
-5 71 0
5 -71 0
-6 72 0
6 -72 0
-7 73 0
7 -73 0
-8 74 0
8 -74 0
-9 75 0
9 -75 0
-10 76 0
10 -76 0
-11 77 0
11 -77 0
-12 78 0
12 -78 0
-13 -91 14 0
-14 13 0
-14 91 0
-13 -92 15 0
-15 13 0
-15 92 0
-13 -93 16 0
-16 13 0
-16 93 0
-13 -94 17 0
-17 13 0
-17 94 0
-13 -95 18 0
-18 13 0
-18 95 0
-13 -96 19 0
-19 13 0
-19 96 0
14 15 16 17 18 19 -13 79 0
13 -79 0
-20 -97 21 0
-21 20 0
-21 97 0
-20 -98 22 0
-22 20 0
-22 98 0
-20 -99 23 0
-23 20 0
-23 99 0
-20 -100 24 0
-24 20 0
-24 100 0
-20 -101 25 0
-25 20 0
-25 101 0
-20 -102 26 0
-26 20 0
-26 102 0
21 22 23 24 25 26 -20 80 0
20 -80 0
-27 -103 28 0
-28 27 0
-28 103 0
-27 -104 29 0
-29 27 0
-29 104 0
-27 -105 30 0
-30 27 0
-30 105 0
-27 -106 31 0
-31 27 0
-31 106 0
-27 -107 32 0
-32 27 0
-32 107 0
-27 -108 33 0
-33 27 0
-33 108 0
28 29 30 31 32 33 -27 81 0
27 -81 0
-34 -109 35 0
-35 34 0
-35 109 0
-34 -110 36 0
-36 34 0
-36 110 0
-34 -111 37 0
-37 34 0
-37 111 0
-34 -112 38 0
-38 34 0
-38 112 0
-34 -113 39 0
-39 34 0
-39 113 0
-34 -114 40 0
-40 34 0
-40 114 0
35 36 37 38 39 40 -34 82 0
34 -82 0
-41 -115 42 0
-42 41 0
-42 115 0
-41 -116 43 0
-43 41 0
-43 116 0
-41 -117 44 0
-44 41 0
-44 117 0
-41 -118 45 0
-45 41 0
-45 118 0
-41 -119 46 0
-46 41 0
-46 119 0
-41 -120 47 0
-47 41 0
-47 120 0
42 43 44 45 46 47 -41 83 0
41 -83 0
-48 -121 49 0
-49 48 0
-49 121 0
-48 -122 50 0
-50 48 0
-50 122 0
-48 -123 51 0
-51 48 0
-51 123 0
-48 -124 52 0
-52 48 0
-52 124 0
-48 -125 53 0
-53 48 0
-53 125 0
-48 -126 54 0
-54 48 0
-54 126 0
49 50 51 52 53 54 -48 84 0
48 -84 0
-55 -127 56 0
-56 55 0
-56 127 0
56 -55 85 0
55 -85 0
-57 -128 58 0
-58 57 0
-58 128 0
58 -57 86 0
57 -86 0
-59 -129 60 0
-60 59 0
-60 129 0
60 -59 87 0
59 -87 0
-61 -130 62 0
-62 61 0
-62 130 0
62 -61 88 0
61 -88 0
-63 -131 64 0
-64 63 0
-64 131 0
64 -63 89 0
63 -89 0
-65 -132 66 0
-66 65 0
-66 132 0
66 -65 90 0
65 -90 0
